instances/knapsack/discrete/knapsack_60_5.kp
46117
60
251

27 2.7 84
8 0.8 4
42 4.2 62
7 0.7 70
12 1.2 75
21 2.1 55
49 4.9 19
83 8.3 69
13 1.3 56
6 0.6 48
55 5.5 1
63 6.3 69
28 2.8 37
56 5.6 84
8 0.8 69
4 0.4 66
17 1.7 48
76 7.6 4
85 8.5 44
82 8.2 7
45 4.5 83
19 1.9 5
76 7.6 90
14 1.4 98
40 4.0 87
84 8.4 28
78 7.8 46
59 5.9 9
49 4.9 24
47 4.7 6
73 7.3 55
3 0.3 46
67 6.7 86
49 4.9 73
40 4.0 65
37 3.7 47
16 1.6 51
36 3.6 41
24 2.4 76
10 1.0 29
35 3.5 58
93 9.3 31
22 2.2 51
73 7.3 5
71 7.1 4
62 6.2 21
73 7.3 38
5 0.5 70
15 1.5 94
40 4.0 67
70 7.0 17
84 8.4 72
93 9.3 21
4 0.4 7
16 1.6 2
27 2.7 56
13 1.3 4
90 9.0 22
96 9.6 74
46 4.6 41

8195
272

[2.48 1.83 3.5 3.09 1.65 4.03 4.44 0.49 3.5 2.83 2.62 0.24 0.96 4.26 4.2 3.74 3.62 1.96 3.58 0.55 4.21 2.55 3.32 0.58 1.35 1.06 3.26 3.84 0.93 3.61 3.31 0.4 2.57 1.94 2.95 0.25 3.11 0.14 1.1 4.22 2.93 2.59 2.25 0.44 4.23 2.27 1.96 2.39 3.33 2.37 2.6 2.45 3.86 0.96 2.55 1.58 4.03 2.54 1.34 0.45]

[70 39 33 14 87 8 16 58 8 17 22 6 31 15 39 59 76 71 4 69 48 82 51 97 95 63 33 58 4 42 64 86 50 28 83 32 23 43 75 13 6 52 85 76 74 33 12 64 98 83 29 95 24 99 51 6 76 5 23 53]
