instances/knapsack/discrete/knapsack_60_5.lp
\ Model knapsack_60_5
\ LP format - for model browsing. Use MPS format to capture full model detail.
\ Signature: 0x44a844bc7146bef8
Minimize
  - 31 x[0] - 12 x[1] - 93 x[2] - 61 x[3] - 99 x[4] - 98 x[5] - 63 x[6]
   - 37 x[7] - 96 x[8] - 16 x[9] - 16 x[10] - 84 x[11] - 72 x[12]
   - 63 x[13] - 32 x[14] - 89 x[15] - 11 x[16] - 91 x[17] - 4 x[18]
   - 55 x[19] - 39 x[20] - 96 x[21] - 61 x[22] - 21 x[23] - 14 x[24]
   - 16 x[25] - 17 x[26] - 77 x[27] - 23 x[28] - 34 x[29] - 14 x[30]
   - 25 x[31] - 29 x[32] - 40 x[33] - 53 x[34] - 62 x[35] - 74 x[36]
   - 16 x[37] - 8 x[38] - 97 x[39] - 77 x[40] - 39 x[41] - 39 x[42]
   - 88 x[43] - 40 x[44] - 64 x[45] - 46 x[46] - 74 x[47] - 66 x[48]
   - 51 x[49] - 52 x[50] - 8 x[51] - 12 x[52] - 90 x[53] - 25 x[54]
   - 27 x[55] - 32 x[56] - 21 x[57] - 77 x[58] - 92 x[59]
Subject To
 primal_upper: 97 x[0] + 25 x[1] + 63 x[2] + 56 x[3] + 93 x[4] + 87 x[5]
   + 42 x[6] + x[7] + 10 x[8] + 19 x[9] + 45 x[10] + 88 x[11] + 81 x[12]
   + x[13] + 58 x[14] + 2 x[15] + 90 x[16] + 65 x[17] + 86 x[18] + 19 x[19]
   + 54 x[20] + 89 x[21] + 85 x[22] + 88 x[23] + 34 x[24] + 29 x[25]
   + 91 x[26] + 13 x[27] + 7 x[28] + 68 x[29] + 35 x[30] + 33 x[31]
   + 41 x[32] + 62 x[33] + 29 x[34] + 14 x[35] + 57 x[36] + 62 x[37]
   + 25 x[38] + 52 x[39] + 100 x[40] + 99 x[41] + 99 x[42] + 95 x[43]
   + 84 x[44] + 88 x[45] + 23 x[46] + 35 x[47] + 44 x[48] + 37 x[49]
   + 80 x[50] + 49 x[51] + 46 x[52] + 77 x[53] + 86 x[54] + 61 x[55]
   + 14 x[56] + 20 x[57] + 21 x[58] + 51 x[59] + 9.7 r[0] + 2.5 r[1]
   + 6.3 r[2] + 5.6 r[3] + 9.3 r[4] + 8.7 r[5] + 4.2 r[6] + 0.1 r[7] + r[8]
   + 1.9 r[9] + 4.5 r[10] + 8.8 r[11] + 8.1 r[12] + 0.1 r[13] + 5.8 r[14]
   + 0.2 r[15] + 9 r[16] + 6.5 r[17] + 8.6 r[18] + 1.9 r[19] + 5.4 r[20]
   + 8.9 r[21] + 8.5 r[22] + 8.8 r[23] + 3.4 r[24] + 2.9 r[25] + 9.1 r[26]
   + 1.3 r[27] + 0.7 r[28] + 6.8 r[29] + 3.5 r[30] + 3.3 r[31] + 4.1 r[32]
   + 6.2 r[33] + 2.9 r[34] + 1.4 r[35] + 5.7 r[36] + 6.2 r[37] + 2.5 r[38]
   + 5.2 r[39] + 10 r[40] + 9.9 r[41] + 9.9 r[42] + 9.5 r[43] + 8.4 r[44]
   + 8.8 r[45] + 2.3 r[46] + 3.5 r[47] + 4.4 r[48] + 3.7 r[49] + 8 r[50]
   + 4.9 r[51] + 4.6 r[52] + 7.7 r[53] + 8.6 r[54] + 6.1 r[55] + 1.4 r[56]
   + 2 r[57] + 2.1 r[58] + 5.1 r[59] <= 305
 primal_lower: 4.91486724198087 x[0] + 0.2033095304563274 x[1]
   + 1.595199679909522 x[2] + 4.077604128946881 x[3]
   + 0.1009465847107589 x[4] + 0.4798168346097331 x[5]
   + 3.122682024516517 x[6] + 1.653567983928351 x[7]
   + 3.034335346025884 x[8] + 3.844333060700659 x[9]
   + 4.832362332092679 x[10] + 3.935415944440068 x[11]
   + 1.064220922335334 x[12] + 2.424876093810704 x[13]
   + 0.2362003611836473 x[14] + 1.099093338090633 x[15]
   + 4.65053326246289 x[16] + 5.051177920816136 x[17]
   + 0.384728683003278 x[18] + 2.233596057216573 x[19]
   + 5.026733274375127 x[20] + 2.975522320414491 x[21]
   + 2.653061644104973 x[22] + 1.0857859705662 x[23]
   + 4.185221357444963 x[24] + 0.8539485910880851 x[25]
   + 2.365063703541864 x[26] + 2.43434034876022 x[27]
   + 2.180686678901131 x[28] + 1.64111377987048 x[29]
   + 4.319524884382565 x[30] + 3.03312847146728 x[31]
   + 4.162434586078776 x[32] + 2.954758886755895 x[33]
   + 3.302295667697567 x[34] + 1.243805787065449 x[35]
   + 1.115667583621485 x[36] + 3.817441569894738 x[37]
   + 2.893872449192414 x[38] + 2.906116115939867 x[39]
   + 0.0399866014207582 x[40] + 1.30355577745917 x[41]
   + 1.567798065149621 x[42] + 0.8164344961660904 x[43]
   + 0.3239800188152426 x[44] + 4.841116938122534 x[45]
   + 0.2352464492230651 x[46] + 5.17050428787709 x[47]
   + 2.339460751654056 x[48] + 3.571469163239711 x[49]
   + 2.194323193671086 x[50] + 3.78424726139753 x[51]
   + 2.32968093739564 x[52] + 4.191340080453014 x[53]
   + 1.668393461388594 x[54] + 1.702064249591801 x[55]
   + 4.41072930831477 x[56] + 0.6617437709919005 x[57]
   + 4.577659526694895 x[58] + 3.183545913734842 x[59] + 26 u[0] + 7 u[1]
   + 81 u[2] + 66 u[3] + 31 u[4] + 4 u[5] + 80 u[6] + 26 u[7] + 36 u[8]
   + 61 u[9] + 74 u[10] + 6 u[11] + 99 u[12] + 7 u[13] + 59 u[14]
   + 31 u[15] + 32 u[16] + 63 u[17] + 76 u[18] + 49 u[19] + 16 u[20]
   + 90 u[21] + 59 u[22] + 57 u[23] + 3 u[24] + 95 u[25] + 61 u[26]
   + 54 u[27] + 84 u[28] + 46 u[29] + 92 u[30] + 38 u[31] + 82 u[32]
   + 88 u[33] + 47 u[34] + 36 u[35] + 79 u[36] + 75 u[37] + 43 u[38]
   + 13 u[39] + 6 u[40] + 76 u[41] + 73 u[42] + 88 u[43] + 14 u[44]
   + 29 u[45] + 48 u[46] + 56 u[47] + 78 u[48] + 51 u[49] + 85 u[50]
   + 43 u[51] + 56 u[52] + 95 u[53] + 55 u[54] + 98 u[55] + 100 u[56]
   + 97 u[57] + 27 u[58] + 25 u[59] <= 99171
 mccormick1[0]: - u[0] + r[0] <= 0
 mccormick1[1]: - u[1] + r[1] <= 0
 mccormick1[2]: - u[2] + r[2] <= 0
 mccormick1[3]: - u[3] + r[3] <= 0
 mccormick1[4]: - u[4] + r[4] <= 0
 mccormick1[5]: - u[5] + r[5] <= 0
 mccormick1[6]: - u[6] + r[6] <= 0
 mccormick1[7]: - u[7] + r[7] <= 0
 mccormick1[8]: - u[8] + r[8] <= 0
 mccormick1[9]: - u[9] + r[9] <= 0
 mccormick1[10]: - u[10] + r[10] <= 0
 mccormick1[11]: - u[11] + r[11] <= 0
 mccormick1[12]: - u[12] + r[12] <= 0
 mccormick1[13]: - u[13] + r[13] <= 0
 mccormick1[14]: - u[14] + r[14] <= 0
 mccormick1[15]: - u[15] + r[15] <= 0
 mccormick1[16]: - u[16] + r[16] <= 0
 mccormick1[17]: - u[17] + r[17] <= 0
 mccormick1[18]: - u[18] + r[18] <= 0
 mccormick1[19]: - u[19] + r[19] <= 0
 mccormick1[20]: - u[20] + r[20] <= 0
 mccormick1[21]: - u[21] + r[21] <= 0
 mccormick1[22]: - u[22] + r[22] <= 0
 mccormick1[23]: - u[23] + r[23] <= 0
 mccormick1[24]: - u[24] + r[24] <= 0
 mccormick1[25]: - u[25] + r[25] <= 0
 mccormick1[26]: - u[26] + r[26] <= 0
 mccormick1[27]: - u[27] + r[27] <= 0
 mccormick1[28]: - u[28] + r[28] <= 0
 mccormick1[29]: - u[29] + r[29] <= 0
 mccormick1[30]: - u[30] + r[30] <= 0
 mccormick1[31]: - u[31] + r[31] <= 0
 mccormick1[32]: - u[32] + r[32] <= 0
 mccormick1[33]: - u[33] + r[33] <= 0
 mccormick1[34]: - u[34] + r[34] <= 0
 mccormick1[35]: - u[35] + r[35] <= 0
 mccormick1[36]: - u[36] + r[36] <= 0
 mccormick1[37]: - u[37] + r[37] <= 0
 mccormick1[38]: - u[38] + r[38] <= 0
 mccormick1[39]: - u[39] + r[39] <= 0
 mccormick1[40]: - u[40] + r[40] <= 0
 mccormick1[41]: - u[41] + r[41] <= 0
 mccormick1[42]: - u[42] + r[42] <= 0
 mccormick1[43]: - u[43] + r[43] <= 0
 mccormick1[44]: - u[44] + r[44] <= 0
 mccormick1[45]: - u[45] + r[45] <= 0
 mccormick1[46]: - u[46] + r[46] <= 0
 mccormick1[47]: - u[47] + r[47] <= 0
 mccormick1[48]: - u[48] + r[48] <= 0
 mccormick1[49]: - u[49] + r[49] <= 0
 mccormick1[50]: - u[50] + r[50] <= 0
 mccormick1[51]: - u[51] + r[51] <= 0
 mccormick1[52]: - u[52] + r[52] <= 0
 mccormick1[53]: - u[53] + r[53] <= 0
 mccormick1[54]: - u[54] + r[54] <= 0
 mccormick1[55]: - u[55] + r[55] <= 0
 mccormick1[56]: - u[56] + r[56] <= 0
 mccormick1[57]: - u[57] + r[57] <= 0
 mccormick1[58]: - u[58] + r[58] <= 0
 mccormick1[59]: - u[59] + r[59] <= 0
 mccormick2[0]: - x[0] + r[0] <= 0
 mccormick2[1]: - x[1] + r[1] <= 0
 mccormick2[2]: - x[2] + r[2] <= 0
 mccormick2[3]: - x[3] + r[3] <= 0
 mccormick2[4]: - x[4] + r[4] <= 0
 mccormick2[5]: - x[5] + r[5] <= 0
 mccormick2[6]: - x[6] + r[6] <= 0
 mccormick2[7]: - x[7] + r[7] <= 0
 mccormick2[8]: - x[8] + r[8] <= 0
 mccormick2[9]: - x[9] + r[9] <= 0
 mccormick2[10]: - x[10] + r[10] <= 0
 mccormick2[11]: - x[11] + r[11] <= 0
 mccormick2[12]: - x[12] + r[12] <= 0
 mccormick2[13]: - x[13] + r[13] <= 0
 mccormick2[14]: - x[14] + r[14] <= 0
 mccormick2[15]: - x[15] + r[15] <= 0
 mccormick2[16]: - x[16] + r[16] <= 0
 mccormick2[17]: - x[17] + r[17] <= 0
 mccormick2[18]: - x[18] + r[18] <= 0
 mccormick2[19]: - x[19] + r[19] <= 0
 mccormick2[20]: - x[20] + r[20] <= 0
 mccormick2[21]: - x[21] + r[21] <= 0
 mccormick2[22]: - x[22] + r[22] <= 0
 mccormick2[23]: - x[23] + r[23] <= 0
 mccormick2[24]: - x[24] + r[24] <= 0
 mccormick2[25]: - x[25] + r[25] <= 0
 mccormick2[26]: - x[26] + r[26] <= 0
 mccormick2[27]: - x[27] + r[27] <= 0
 mccormick2[28]: - x[28] + r[28] <= 0
 mccormick2[29]: - x[29] + r[29] <= 0
 mccormick2[30]: - x[30] + r[30] <= 0
 mccormick2[31]: - x[31] + r[31] <= 0
 mccormick2[32]: - x[32] + r[32] <= 0
 mccormick2[33]: - x[33] + r[33] <= 0
 mccormick2[34]: - x[34] + r[34] <= 0
 mccormick2[35]: - x[35] + r[35] <= 0
 mccormick2[36]: - x[36] + r[36] <= 0
 mccormick2[37]: - x[37] + r[37] <= 0
 mccormick2[38]: - x[38] + r[38] <= 0
 mccormick2[39]: - x[39] + r[39] <= 0
 mccormick2[40]: - x[40] + r[40] <= 0
 mccormick2[41]: - x[41] + r[41] <= 0
 mccormick2[42]: - x[42] + r[42] <= 0
 mccormick2[43]: - x[43] + r[43] <= 0
 mccormick2[44]: - x[44] + r[44] <= 0
 mccormick2[45]: - x[45] + r[45] <= 0
 mccormick2[46]: - x[46] + r[46] <= 0
 mccormick2[47]: - x[47] + r[47] <= 0
 mccormick2[48]: - x[48] + r[48] <= 0
 mccormick2[49]: - x[49] + r[49] <= 0
 mccormick2[50]: - x[50] + r[50] <= 0
 mccormick2[51]: - x[51] + r[51] <= 0
 mccormick2[52]: - x[52] + r[52] <= 0
 mccormick2[53]: - x[53] + r[53] <= 0
 mccormick2[54]: - x[54] + r[54] <= 0
 mccormick2[55]: - x[55] + r[55] <= 0
 mccormick2[56]: - x[56] + r[56] <= 0
 mccormick2[57]: - x[57] + r[57] <= 0
 mccormick2[58]: - x[58] + r[58] <= 0
 mccormick2[59]: - x[59] + r[59] <= 0
 mccormick3[0]: x[0] + u[0] - r[0] <= 1
 mccormick3[1]: x[1] + u[1] - r[1] <= 1
 mccormick3[2]: x[2] + u[2] - r[2] <= 1
 mccormick3[3]: x[3] + u[3] - r[3] <= 1
 mccormick3[4]: x[4] + u[4] - r[4] <= 1
 mccormick3[5]: x[5] + u[5] - r[5] <= 1
 mccormick3[6]: x[6] + u[6] - r[6] <= 1
 mccormick3[7]: x[7] + u[7] - r[7] <= 1
 mccormick3[8]: x[8] + u[8] - r[8] <= 1
 mccormick3[9]: x[9] + u[9] - r[9] <= 1
 mccormick3[10]: x[10] + u[10] - r[10] <= 1
 mccormick3[11]: x[11] + u[11] - r[11] <= 1
 mccormick3[12]: x[12] + u[12] - r[12] <= 1
 mccormick3[13]: x[13] + u[13] - r[13] <= 1
 mccormick3[14]: x[14] + u[14] - r[14] <= 1
 mccormick3[15]: x[15] + u[15] - r[15] <= 1
 mccormick3[16]: x[16] + u[16] - r[16] <= 1
 mccormick3[17]: x[17] + u[17] - r[17] <= 1
 mccormick3[18]: x[18] + u[18] - r[18] <= 1
 mccormick3[19]: x[19] + u[19] - r[19] <= 1
 mccormick3[20]: x[20] + u[20] - r[20] <= 1
 mccormick3[21]: x[21] + u[21] - r[21] <= 1
 mccormick3[22]: x[22] + u[22] - r[22] <= 1
 mccormick3[23]: x[23] + u[23] - r[23] <= 1
 mccormick3[24]: x[24] + u[24] - r[24] <= 1
 mccormick3[25]: x[25] + u[25] - r[25] <= 1
 mccormick3[26]: x[26] + u[26] - r[26] <= 1
 mccormick3[27]: x[27] + u[27] - r[27] <= 1
 mccormick3[28]: x[28] + u[28] - r[28] <= 1
 mccormick3[29]: x[29] + u[29] - r[29] <= 1
 mccormick3[30]: x[30] + u[30] - r[30] <= 1
 mccormick3[31]: x[31] + u[31] - r[31] <= 1
 mccormick3[32]: x[32] + u[32] - r[32] <= 1
 mccormick3[33]: x[33] + u[33] - r[33] <= 1
 mccormick3[34]: x[34] + u[34] - r[34] <= 1
 mccormick3[35]: x[35] + u[35] - r[35] <= 1
 mccormick3[36]: x[36] + u[36] - r[36] <= 1
 mccormick3[37]: x[37] + u[37] - r[37] <= 1
 mccormick3[38]: x[38] + u[38] - r[38] <= 1
 mccormick3[39]: x[39] + u[39] - r[39] <= 1
 mccormick3[40]: x[40] + u[40] - r[40] <= 1
 mccormick3[41]: x[41] + u[41] - r[41] <= 1
 mccormick3[42]: x[42] + u[42] - r[42] <= 1
 mccormick3[43]: x[43] + u[43] - r[43] <= 1
 mccormick3[44]: x[44] + u[44] - r[44] <= 1
 mccormick3[45]: x[45] + u[45] - r[45] <= 1
 mccormick3[46]: x[46] + u[46] - r[46] <= 1
 mccormick3[47]: x[47] + u[47] - r[47] <= 1
 mccormick3[48]: x[48] + u[48] - r[48] <= 1
 mccormick3[49]: x[49] + u[49] - r[49] <= 1
 mccormick3[50]: x[50] + u[50] - r[50] <= 1
 mccormick3[51]: x[51] + u[51] - r[51] <= 1
 mccormick3[52]: x[52] + u[52] - r[52] <= 1
 mccormick3[53]: x[53] + u[53] - r[53] <= 1
 mccormick3[54]: x[54] + u[54] - r[54] <= 1
 mccormick3[55]: x[55] + u[55] - r[55] <= 1
 mccormick3[56]: x[56] + u[56] - r[56] <= 1
 mccormick3[57]: x[57] + u[57] - r[57] <= 1
 mccormick3[58]: x[58] + u[58] - r[58] <= 1
 mccormick3[59]: x[59] + u[59] - r[59] <= 1
Bounds
Binaries
 x[0] x[1] x[2] x[3] x[4] x[5] x[6] x[7] x[8] x[9] x[10] x[11] x[12] x[13]
 x[14] x[15] x[16] x[17] x[18] x[19] x[20] x[21] x[22] x[23] x[24] x[25]
 x[26] x[27] x[28] x[29] x[30] x[31] x[32] x[33] x[34] x[35] x[36] x[37]
 x[38] x[39] x[40] x[41] x[42] x[43] x[44] x[45] x[46] x[47] x[48] x[49]
 x[50] x[51] x[52] x[53] x[54] x[55] x[56] x[57] x[58] x[59] u[0] u[1] u[2]
 u[3] u[4] u[5] u[6] u[7] u[8] u[9] u[10] u[11] u[12] u[13] u[14] u[15]
 u[16] u[17] u[18] u[19] u[20] u[21] u[22] u[23] u[24] u[25] u[26] u[27]
 u[28] u[29] u[30] u[31] u[32] u[33] u[34] u[35] u[36] u[37] u[38] u[39]
 u[40] u[41] u[42] u[43] u[44] u[45] u[46] u[47] u[48] u[49] u[50] u[51]
 u[52] u[53] u[54] u[55] u[56] u[57] u[58] u[59] r[0] r[1] r[2] r[3] r[4]
 r[5] r[6] r[7] r[8] r[9] r[10] r[11] r[12] r[13] r[14] r[15] r[16] r[17]
 r[18] r[19] r[20] r[21] r[22] r[23] r[24] r[25] r[26] r[27] r[28] r[29]
 r[30] r[31] r[32] r[33] r[34] r[35] r[36] r[37] r[38] r[39] r[40] r[41]
 r[42] r[43] r[44] r[45] r[46] r[47] r[48] r[49] r[50] r[51] r[52] r[53]
 r[54] r[55] r[56] r[57] r[58] r[59]
End
